NAME : rnd5_20.tsp
TYPE : TSP
DIMENSION : 20
EDGE_WEIGHT_TYPE : EUC_2D
NODE_COORD_SECTION
0 895 964
1 415 157
2 938 950
3 405 216
4 99 640
5 122 979
6 963 936
7 119 354
8 109 712
9 489 12
10 582 725
11 549 333
12 305 861
13 396 681
14 873 670
15 664 762
16 963 252
17 108 856
18 114 916
19 72 340
